row=6;
Board=[|2,6,-1,-1,3,9,-1,0,8,-1|-1,5,9,-1,2,-1,8,3,-1,-1|0,1,4,3,-1,6,-1,5,2,-1|-1,-1,-1,2,-1,1,-1,3,4,-1|-1,3,9,5,8,2,7,6,-1,0|-1,1,7,0,-1,-1,-1,-1,3,8|];
bottom=[31,24,39,16,35,22,34,19,24,26]